Traveling Salesman Problem/TSP_generados/Aleatorio1620391033_13.tsp
NAME: Aleatorio1620391033_13.tsp
COMMENT: Randomly generated scenario
TYPE: TSP
DIMENSION: 13
EDGE_WEIGHT_TYPE: ATT
NODE_COORD_SECTION
1 24.74 42.13
2 19.64 37.65
3 38.1 12.62
4 13.07 35.69
5 18.88 48.1
6 33.37 35.48
7 43.11 45.11
8 23.69 36.14
9 17.77 11.47
10 1.16 31.17
11 42.93 18.84
12 19.58 16.91
13 7.4 40.8
