Traveling Salesman Problem/TSP_generados/Aleatorio1620391033_13.opt.tour
NAME: Aleatorio1620391033_13.opt.tour
COMMENT: Optimal solution for Aleatorio1620391033_13 (157.82384251050775)
TYPE: TOUR
DIMENSION: 13
TOUR_SECTION
1 5 2 4 13 10 12 9 3 11 7 6 8
-1
EOF
